30 40
6 8 2
4 9 2
6 4 2
3 1 3
3 3 1
3 5 2
6 6 1
8 8 1
7 6 1
5 10 1
8 3 1
9 6 1
4 8 2
10 1 1
9 2 1
10 4 1
6 7 1
5 6 1
6 9 1
7 2 2
1 4 1
4 7 2
3 2 1
8 5 2
6 2 1
1 1 1
7 4 1
4 1 1
2 4 1
7 1 1
10 10 
10 10 
10 10 
10 10 
10 10 
10 10 
10 10 
10 10 
10 10 
10 10 
10 10 
10 10 
10 10 
10 10 
10 10 
10 10 
10 10 
10 10 
10 10 
10 10 
10 10 
10 10 
10 10 
10 10 
10 10 
10 10 
10 10 
10 10 
10 10 
10 10 
10 10 
10 10 
10 10 
10 10 
10 10 
10 10 
10 10 
10 10 
10 10 
10 10 
